32	0

0	3	3	2	4
4	2	5	6
3	2	5	6
6	2	5	6
9	1	8
7	1	7
10	1	8
4	1	9
5	1	10
6	1	11
10	2	12	13
8	1	14
6	1	14
3	2	15	18
1	1	16
3	2	17	20
7	1	19
5	2	19	20
1	1	21
7	1	21
9	2	22	23
1	1	24
3	1	24
10	2	25	26
3	2	27	28
4	2	27	28
6	1	29
5	1	29
8	1	30
1	1	31
8	1	32
0	0
